p cnf 1274 1353
c ind 831 832 833 846 853 879 940 941 954 961 0
c ind 965 967 970 986 988 991 1003 1004 1023 1025 0
c ind 1029 1040 1041 1045 1046 1047 1051 1053 824 939 0
c ind 854 866 825 826 938 829 830 937 1227 1228 0
c ind 1226 1225 1223 1224 1222 1217 1221 1220 1219 1218 0
c ind 1259 1264 1241 1250 1255 1245 1272 1258 1263 1240 0
c ind 1249 1254 1244 1271 1215 1216 1257 1262 1239 1248 0
c ind 1253 1243 1270 1214 1256 1261 1209 1238 1247 1252 0
c ind 1242 1269 1213 1212 1233 1237 1267 1211 1210 1207 0
c ind 1208 1235 1265 1200 1201 1206 1266 1236 1205 1204 0
c ind 1203 1202 1260 1246 1251 1268 1198 1199 827 828 0
c ind 1197 1196 1194 1195 1193 1188 1192 1191 1190 1189 0
c ind 1234 1186 1187 1185 1180 1184 1183 1182 1181 1230 0
c ind 1178 1179 1171 1172 1177 1231 1176 1175 1174 1173 0
c ind 1169 1170 1168 1167 1165 1166 1164 1159 1163 1162 0
c ind 1161 1160 1157 1158 1156 1151 1155 1154 1153 1152 0
c ind 1232 1149 1150 1142 1143 1148 1147 1146 1229 1145 0
c ind 1144 1140 1141 1139 1138 1136 1137 1135 1130 1134 0
c ind 1133 1132 1131 1128 1129 1127 1122 1126 1125 1124 0
c ind 1123 1120 1121 1113 1114 1119 1118 1117 1116 1115 0
c ind 1111 1112 1110 1109 1107 1108 1106 1101 1105 1104 0
c ind 1103 1102 1099 1100 1098 1093 1097 1096 1095 1094 0
c ind 1091 1092 1084 1085 1090 1089 1088 1087 1086 1082 0
c ind 1083 1081 1080 1078 1079 1077 1072 1076 1075 1074 0
c ind 1073 1070 1071 1069 1064 1068 1067 1066 1065 1062 0
c ind 1063 1055 1056 1061 1060 1059 1058 1057 1035 1036 0
c ind 1034 1033 1032 1054 1044 1042 1043 1031 1030 1052 0
c ind 1039 1028 1050 1048 1049 1037 1038 1027 1026 1019 0
c ind 1024 1022 1020 1021 1018 1011 1010 1017 836 1016 0
c ind 1015 1014 1013 1012 1009 1008 1007 1006 1005 823 0
c ind 998 997 995 996 994 993 999 1000 992 990 0
c ind 1001 989 1002 987 985 983 984 982 944 981 0
c ind 980 979 978 977 976 974 975 973 972 971 0
c ind 969 968 966 964 962 963 960 955 959 956 0
c ind 957 951 958 953 949 950 952 948 943 947 0
c ind 945 946 942 936 929 921 935 934 933 932 0
c ind 915 914 913 931 912 930 911 910 909 928 0
c ind 927 926 925 924 923 922 920 919 918 917 0
c ind 916 908 901 893 907 906 905 904 887 886 0
c ind 885 903 884 902 883 882 881 900 899 898 0
c ind 897 896 895 894 892 891 890 889 888 880 0
c ind 878 876 877 867 868 875 874 873 872 871 0
c ind 869 870 863 862 864 865 861 860 859 858 0
c ind 856 857 855 852 851 847 848 849 850 843 0
c ind 845 842 841 844 835 840 834 839 837 838 0
c ind 1 0
c ret 620 621 622 623 624 625 626 627 628 629 0
c ret 630 631 632 633 634 635 636 637 638 639 0
c ret 640 641 642 643 644 645 646 647 648 649 0
c ret 650 651 652 653 654 655 656 657 658 659 0
c ret 660 661 662 663 664 665 666 667 668 669 0
c ret 670 671 672 673 674 675 676 677 678 679 0
c ret 680 681 682 683 684 685 686 687 688 689 0
c ret 690 691 692 693 694 695 696 697 698 699 0
c ret 700 701 702 703 704 705 706 707 708 709 0
c ret 710 711 712 713 714 715 716 717 718 719 0
c ret 720 721 722 723 724 725 726 727 728 729 0
c ret 730 731 732 733 734 735 736 737 738 739 0
c ret 740 741 742 743 744 745 746 747 748 749 0
c ret 750 751 752 753 754 755 756 757 758 759 0
c ret 760 761 762 763 764 765 766 767 768 769 0
c ret 770 771 772 773 774 775 776 777 778 779 0
c ret 780 781 782 783 784 785 315 786 787 321 0
c ret 322 323 324 325 326 327 328 329 330 331 0
c ret 332 333 334 335 336 337 338 339 340 341 0
c ret 788 789 342 343 790 791 344 345 346 347 0
c ret 348 349 350 351 352 353 354 355 356 357 0
c ret 316 358 359 792 360 793 361 362 794 363 0
c ret 795 364 365 366 367 368 369 370 371 372 0
c ret 373 374 796 375 376 377 378 379 797 380 0
c ret 381 798 382 383 799 384 800 385 386 387 0
c ret 388 389 390 391 392 393 394 395 396 397 0
c ret 801 398 317 399 400 802 401 803 402 403 0
c ret 404 804 405 805 406 407 408 409 410 411 0
c ret 412 413 414 415 416 417 418 419 420 421 0
c ret 422 423 806 424 807 425 426 427 808 809 0
c ret 428 429 430 431 432 433 434 435 436 437 0
c ret 810 438 318 439 440 441 442 443 444 811 0
c ret 445 812 446 447 813 814 448 449 450 451 0
c ret 452 453 454 455 815 456 816 457 458 459 0
c ret 817 460 461 462 463 464 465 466 467 468 0
c ret 469 470 471 472 473 818 474 475 476 477 0
c ret 819 478 820 479 821 480 822 481 482 483 0
c ret 484 485 486 487 488 489 490 491 492 493 0
c ret 494 495 496 497 498 499 500 501 502 503 0
c ret 504 505 506 507 508 509 319 510 511 512 0
c ret 513 514 515 516 517 518 519 520 521 522 0
c ret 523 524 525 526 527 528 529 530 531 532 0
c ret 533 534 535 536 537 538 539 540 541 542 0
c ret 543 544 545 546 547 548 320 549 550 551 0
c ret 552 553 554 555 556 557 558 559 560 561 0
c ret 562 563 564 565 566 567 568 569 570 571 0
c ret 572 573 574 575 576 577 578 579 580 581 0
c ret 582 583 584 585 586 587 588 589 590 591 0
c ret 592 593 594 595 596 597 598 599 600 601 0
c ret 602 603 604 605 606 607 608 609 610 611 0
c ret 612 613 614 615 616 617 618 619 0
2 140 308 -309 0
2 3 308 -309 0
-2 309 0
-2 -308 0
-2 -3 -140 0
3 -4 -60 -130 0
3 4 60 120 0
3 4 60 -130 0
3 -4 -60 120 0
-3 4 -60 0
-3 -4 60 0
-3 -120 130 0
4 -5 -15 0
4 -5 54 0
-4 5 0
-4 15 -54 0
5 -6 -8 0
-5 6 0
-5 8 0
6 -7 -634 -663 0
-6 634 0
-6 663 0
-6 7 0
7 -605 -692 -721 -750 0
-7 750 0
-7 605 0
-7 721 0
-7 692 0
8 9 -576 0
-8 576 0
-8 -9 0
9 -10 -11 0
9 -11 -14 0
-9 11 0
-9 10 14 0
10 547 0
10 -548 -554 0
10 548 -555 0
-10 -547 548 555 0
-10 -547 -548 554 0
-10 11 -12 0
11 -12 -13 0
-11 12 0
10 -11 13 0
12 547 0
12 -548 554 0
12 548 555 0
-12 -547 548 -555 0
-12 -547 -548 -554 0
-10 13 0
13 556 -563 0
13 -556 -562 0
10 -13 -556 562 0
10 -13 556 563 0
-10 14 0
14 -556 562 0
14 556 563 0
10 -14 -556 -562 0
10 -14 556 -563 0
15 -16 -53 -800 0
15 16 -17 -53 0
-15 53 0
-15 -16 800 0
-15 16 17 0
16 542 -544 0
-16 -542 0
-16 544 0
17 -18 -799 0
17 18 -19 0
-17 -18 799 0
-17 18 19 0
18 514 -516 0
-18 -514 0
-18 516 0
19 20 45 52 0
19 20 45 -48 0
-19 -20 0
-19 -45 0
-19 48 -52 0
20 -43 315 -490 0
20 21 315 490 0
-20 -315 0
-20 43 -490 0
-20 -21 490 0
21 -22 -796 0
-21 796 0
-21 22 0
22 23 -27 0
-22 -23 0
-22 27 0
23 -24 -347 0
23 -26 -347 0
23 -25 -347 0
-23 347 0
-23 24 25 26 0
24 -348 349 350 0
-24 348 0
-24 -350 0
-24 -349 0
25 353 356 357 0
-25 -353 0
-25 -357 0
-25 -356 0
26 -353 354 355 0
-26 353 0
-26 -355 0
-26 -354 0
27 28 -35 0
27 28 38 -380 0
-27 -28 0
-27 35 -38 0
-27 35 380 0
28 -29 32 0
28 32 401 0
-28 -32 0
-28 29 -401 0
29 -31 404 407 0
29 -30 -31 404 0
-29 -404 0
-29 31 0
-29 30 -407 0
30 405 -406 0
-30 -405 0
-30 406 0
31 402 403 0
-31 -402 0
-31 -403 0
30 -31 32 33 -34 0
31 -32 0
-32 -33 0
-30 -32 0
-32 34 0
33 413 414 0
33 413 421 422 0
-33 -413 0
-33 -414 -421 0
-33 -414 -422 0
34 -401 404 407 -408 0
-34 408 0
-34 -407 0
-34 401 0
-34 -404 0
35 36 -373 0
35 37 -373 -379 0
-35 373 0
-35 -36 379 0
-35 -36 -37 0
36 374 375 376 0
-36 -374 0
-36 -376 0
-36 -375 0
37 377 -378 0
-37 -377 0
-37 378 0
38 39 42 0
-38 -39 0
-38 -42 0
39 -40 -41 -393 0
39 -40 -41 -394 0
-39 41 0
-39 40 0
-39 393 394 0
-36 37 40 -373 -380 0
36 -40 0
-37 -40 0
-40 373 0
-40 380 0
41 379 385 -386 0
-41 386 0
-41 -385 0
-41 -379 0
-40 42 379 -385 0
40 -42 0
-42 385 0
-42 -379 0
43 -44 797 0
21 43 44 0
-43 -44 -797 0
-21 -43 44 0
44 456 -458 0
-44 -456 0
-44 458 0
45 -46 -47 -500 0
45 -46 -47 -501 0
-45 47 0
-45 46 0
-45 500 501 0
46 503 504 505 506 0
-46 -506 0
-46 -505 0
-46 -503 0
-46 -504 0
47 -497 -498 -499 502 0
-47 499 0
-47 -502 0
-47 497 0
-47 498 0
43 48 -49 0
-43 -48 0
-48 49 0
49 50 51 0
-49 -50 0
-49 -51 0
50 469 470 471 0
-50 -469 0
-50 -471 0
-50 -470 0
51 477 -479 0
-51 -477 0
-51 479 0
51 52 -315 0
52 -315 798 0
-52 315 0
-51 -52 -798 0
53 -511 518 0
-53 511 0
-53 -518 0
54 -55 -511 0
17 19 54 0
17 54 -511 0
19 54 -55 0
-19 -54 511 0
-17 -54 55 0
55 57 518 0
55 -56 57 0
55 57 511 0
-55 -57 0
-55 56 -511 -518 0
56 -519 520 0
-56 519 0
-56 -520 0
57 58 -59 0
-57 -58 0
-57 59 0
58 522 -523 -524 525 0
-58 -522 0
-58 -525 0
-58 524 0
-58 523 0
59 -511 -518 -519 520 0
-59 519 0
-59 -520 0
-59 511 0
-59 518 0
60 -61 -77 0
60 -61 114 0
-60 61 0
-60 77 -114 0
61 62 -70 0
-61 -62 0
-61 70 0
62 -63 64 0
-62 63 0
-62 -64 0
63 1084 0
63 -1085 1091 0
63 1085 1092 0
-63 -1084 1085 -1092 0
-63 -1084 -1085 -1091 0
64 65 67 0
64 65 66 0
64 65 69 0
-64 -65 0
-64 -66 -67 -69 0
65 1084 0
65 -1085 -1091 0
65 1085 -1092 0
-65 -1084 1085 1092 0
-65 -1084 -1085 1091 0
66 1093 1100 0
66 -1093 1099 0
-66 -1093 -1099 0
-66 1093 -1100 0
67 68 0
67 1101 -1108 0
67 -1101 -1107 0
-67 -68 1101 1108 0
-67 -68 -1101 1107 0
65 -66 68 0
-65 -68 0
66 -68 0
68 69 0
69 -1101 1107 0
69 1101 1108 0
-68 -69 -1101 -1107 0
-68 -69 1101 -1108 0
70 -71 73 0
70 -71 72 76 0
-70 71 0
-70 -72 -73 0
-70 -73 -76 0
71 -1113 -1142 -1171 -1200 0
-71 1200 0
-71 1113 0
-71 1171 0
-71 1142 0
72 1055 0
72 -1056 -1062 0
72 1056 -1063 0
-72 -1055 1056 1063 0
-72 -1055 -1056 1062 0
73 -74 -75 0
-72 73 -75 0
-73 75 0
72 -73 74 0
-72 74 0
74 1064 -1071 0
74 -1064 -1070 0
72 -74 -1064 1070 0
72 -74 1064 1071 0
75 1055 0
75 -1056 1062 0
75 1056 1063 0
-75 -1055 1056 -1063 0
-75 -1055 -1056 -1062 0
-72 76 0
76 -1064 1070 0
76 1064 1071 0
72 -76 -1064 -1070 0
72 -76 1064 -1071 0
77 -78 -113 -1250 0
77 78 -79 -113 0
-77 113 0
-77 -78 1250 0
-77 78 79 0
78 1050 -1052 0
-78 -1050 0
-78 1052 0
79 -80 -1249 0
79 80 -81 0
-79 -80 1249 0
-79 80 81 0
80 1022 -1024 0
-80 -1022 0
-80 1024 0
81 82 105 112 0
81 82 105 -108 0
-81 -82 0
-81 -105 0
-81 108 -112 0
82 -103 823 -998 0
82 83 823 998 0
-82 -823 0
-82 103 -998 0
-82 -83 998 0
83 -84 -1246 0
-83 1246 0
-83 84 0
84 -85 99 0
-84 85 0
-84 -99 0
85 -92 93 0
85 86 93 -888 0
-85 -93 0
-85 -86 92 0
-85 92 888 0
86 87 0
86 90 -887 0
86 90 893 0
-86 -87 -90 0
-86 -87 887 -893 0
87 -88 89 -881 -888 0
-87 88 0
-87 -89 0
-87 881 0
-87 888 0
88 882 883 884 0
-88 -882 0
-88 -884 0
-88 -883 0
89 885 -886 0
-89 -885 0
-89 886 0
90 91 887 893 -894 0
-90 -887 0
-90 -91 0
-90 894 0
-90 -893 0
91 901 902 0
-91 -901 0
-91 -902 0
88 92 -881 0
89 92 -881 -887 0
-92 881 0
-88 -92 887 0
-88 -89 -92 0
93 95 98 0
93 95 -97 0
93 94 95 0
-93 -95 0
-93 -94 97 -98 0
94 910 911 912 0
-94 -910 0
-94 -912 0
-94 -911 0
94 95 -909 0
95 96 -909 -915 0
-95 909 0
-94 -95 915 0
-94 -95 -96 0
96 913 -914 0
-96 -913 0
-96 914 0
97 921 922 0
97 921 929 930 0
-97 -921 0
-97 -922 -929 0
-97 -922 -930 0
96 98 -909 915 -916 0
-98 916 0
-96 -98 0
-98 909 0
-98 -915 0
99 -100 -855 0
99 -102 -855 0
99 -101 -855 0
-99 855 0
-99 100 101 102 0
100 -856 857 858 0
-100 856 0
-100 -858 0
-100 -857 0
101 861 864 865 0
-101 -861 0
-101 -865 0
-101 -864 0
102 -861 862 863 0
-102 861 0
-102 -863 0
-102 -862 0
103 -104 1247 0
83 103 104 0
-103 -104 -1247 0
-83 -103 104 0
104 964 -966 0
-104 -964 0
-104 966 0
105 -106 -107 -1008 0
105 -106 -107 -1009 0
-105 107 0
-105 106 0
-105 1008 1009 0
106 1011 1012 1013 1014 0
-106 -1014 0
-106 -1013 0
-106 -1011 0
-106 -1012 0
107 -1005 -1006 -1007 1010 0
-107 1007 0
-107 -1010 0
-107 1005 0
-107 1006 0
103 108 -109 0
-103 -108 0
-108 109 0
109 110 111 0
-109 -110 0
-109 -111 0
110 977 978 979 0
-110 -977 0
-110 -979 0
-110 -978 0
111 985 -987 0
-111 -985 0
-111 987 0
111 112 -823 0
112 -823 1248 0
-112 823 0
-111 -112 -1248 0
113 -1019 1026 0
-113 1019 0
-113 -1026 0
114 -115 -1019 0
79 81 114 0
79 114 -1019 0
81 114 -115 0
-81 -114 1019 0
-79 -114 115 0
115 117 1026 0
115 -116 117 0
115 117 1019 0
-115 -117 0
-115 116 -1019 -1026 0
116 -1027 1028 0
-116 1027 0
-116 -1028 0
117 118 -119 0
-117 -118 0
-117 119 0
118 1030 -1031 -1032 1033 0
-118 -1030 0
-118 -1033 0
-118 1032 0
-118 1031 0
119 -1019 -1026 -1027 1028 0
-119 1027 0
-119 -1028 0
-119 1019 0
-119 1026 0
-5 120 -121 0
-5 120 129 0
5 -120 0
-120 121 -129 0
16 -53 121 -122 0
-16 -53 121 -822 0
53 -121 0
16 -121 122 0
-16 -121 822 0
-18 122 -821 0
18 122 -123 0
-18 -122 821 0
18 -122 123 0
45 123 124 128 0
45 123 124 -127 0
-45 -123 0
-123 -124 0
-123 127 -128 0
124 -126 315 -490 0
124 125 315 490 0
-124 -315 0
-124 126 -490 0
-124 -125 490 0
-22 125 -818 0
-125 818 0
22 -125 0
-44 126 819 0
44 125 126 0
-44 -126 -819 0
44 -125 -126 0
-49 126 127 0
49 -127 0
-126 -127 0
51 128 -315 0
128 -315 820 0
-128 315 0
-51 -128 -820 0
-55 123 129 0
122 129 -511 0
-55 129 -511 0
122 123 129 0
55 -122 -129 0
-123 -129 511 0
-61 130 -131 0
-61 130 139 0
61 -130 0
-130 131 -139 0
78 -113 131 -132 0
-78 -113 131 -1272 0
113 -131 0
78 -131 132 0
-78 -131 1272 0
-80 132 -1271 0
80 132 -133 0
-80 -132 1271 0
80 -132 133 0
105 133 134 138 0
105 133 134 -137 0
-105 -133 0
-133 -134 0
-133 137 -138 0
134 -136 823 -998 0
134 135 823 998 0
-134 -823 0
-134 136 -998 0
-134 -135 998 0
-84 135 -1268 0
-135 1268 0
84 -135 0
-104 136 1269 0
104 135 136 0
-104 -136 -1269 0
104 -135 -136 0
-109 136 137 0
109 -137 0
-136 -137 0
111 138 -823 0
138 -823 1270 0
-138 823 0
-111 -138 -1270 0
-115 133 139 0
132 139 -1019 0
-115 139 -1019 0
132 133 139 0
115 -132 -139 0
-133 -139 1019 0
140 141 150 -159 -287 0
140 -141 -150 -159 -287 0
-140 287 0
-140 -141 150 0
-140 159 0
-140 141 -150 0
-5 141 -142 0
-5 141 149 0
5 -141 0
-141 142 -149 0
16 -53 142 -143 0
-16 -53 142 -795 0
53 -142 0
16 -142 143 0
-16 -142 795 0
-18 143 -794 0
18 143 -144 0
-18 -143 794 0
18 -143 144 0
45 144 145 148 0
45 144 145 -147 0
-45 -144 0
-144 -145 0
-144 147 -148 0
145 -146 315 -490 0
22 145 315 490 0
-145 -315 0
-145 146 -490 0
-22 -145 490 0
-44 146 792 0
22 44 146 0
-44 -146 -792 0
-22 44 -146 0
-49 146 147 0
49 -147 0
-146 -147 0
51 148 -315 0
148 -315 793 0
-148 315 0
-51 -148 -793 0
-55 144 149 0
143 149 -511 0
-55 149 -511 0
143 144 149 0
55 -143 -149 0
-144 -149 511 0
-61 150 -151 0
-61 150 158 0
61 -150 0
-150 151 -158 0
78 -113 151 -152 0
-78 -113 151 -1245 0
113 -151 0
78 -151 152 0
-78 -151 1245 0
-80 152 -1244 0
80 152 -153 0
-80 -152 1244 0
80 -152 153 0
105 153 154 157 0
105 153 154 -156 0
-105 -153 0
-153 -154 0
-153 156 -157 0
154 -155 823 -998 0
84 154 823 998 0
-154 -823 0
-154 155 -998 0
-84 -154 998 0
-104 155 1242 0
84 104 155 0
-104 -155 -1242 0
-84 104 -155 0
-109 155 156 0
109 -156 0
-155 -156 0
111 157 -823 0
157 -823 1243 0
-157 823 0
-111 -157 -1243 0
-115 153 158 0
152 158 -1019 0
-115 158 -1019 0
152 153 158 0
115 -152 -158 0
-153 -158 1019 0
159 -160 -209 -267 -277 0
159 -160 -209 267 277 0
-159 209 0
-159 267 -277 0
-159 160 0
-159 -267 277 0
160 -161 -175 -200 0
160 161 175 191 0
160 161 175 -200 0
160 -161 -175 191 0
-160 161 -175 0
-160 -161 175 0
-160 -191 200 0
161 -162 -163 0
161 -162 -173 0
161 -162 -172 0
-161 162 0
-161 163 172 173 0
-70 162 -1084 0
-162 1084 0
70 -162 0
163 166 -167 0
-109 163 164 -167 0
-163 167 0
-163 -164 -166 0
109 -163 -166 0
-104 164 1252 0
104 164 165 0
-104 -164 -1252 0
104 -164 -165 0
-84 165 -1251 0
-165 1251 0
84 -165 0
111 166 -823 0
166 -823 1253 0
-166 823 0
-111 -166 -1253 0
167 -168 171 0
-167 168 0
-167 -171 0
105 168 169 0
-105 -168 0
-168 -169 0
-80 169 -1019 0
169 -170 -1019 0
-169 1019 0
80 -169 170 0
-78 117 170 1026 0
-116 117 170 -1026 0
-117 -170 0
116 -170 -1026 0
78 -170 1026 0
-164 171 823 -998 0
165 171 823 998 0
-171 -823 0
164 -171 -998 0
-165 -171 998 0
-78 -113 172 -1255 0
-172 1255 0
78 -172 0
113 -172 0
-80 173 -174 -1254 0
-173 1254 0
80 -173 0
-173 174 0
170 174 -1019 0
-174 1019 0
-170 -174 0
175 -176 -179 0
175 -176 -189 0
175 -176 -188 0
-175 176 0
-175 179 188 189 0
-6 9 176 178 0
-6 9 176 177 0
6 -176 0
-9 -176 0
-176 -177 -178 0
177 576 0
177 -577 -583 0
177 577 -584 0
-177 -576 577 584 0
-177 -576 -577 583 0
178 576 0
178 -577 583 0
178 577 584 0
-178 -576 577 -584 0
-178 -576 -577 -583 0
179 182 -183 0
-49 179 180 -183 0
-179 183 0
-179 -180 -182 0
49 -179 -182 0
-44 180 802 0
44 180 181 0
-44 -180 -802 0
44 -180 -181 0
-22 181 -801 0
-181 801 0
22 -181 0
51 182 -315 0
182 -315 803 0
-182 315 0
-51 -182 -803 0
183 -184 187 0
-183 184 0
-183 -187 0
45 184 185 0
-45 -184 0
-184 -185 0
-18 185 -511 0
185 -186 -511 0
-185 511 0
18 -185 186 0
-16 57 186 518 0
-56 57 186 -518 0
-57 -186 0
56 -186 -518 0
16 -186 518 0
-180 187 315 -490 0
181 187 315 490 0
-187 -315 0
180 -187 -490 0
-181 -187 490 0
-16 -53 188 -805 0
-188 805 0
16 -188 0
53 -188 0
-18 189 -190 -804 0
-189 804 0
18 -189 0
-189 190 0
186 190 -511 0
-190 511 0
-186 -190 0
-162 191 -192 0
-162 191 -199 0
-162 191 -198 0
162 -191 0
-191 192 198 199 0
192 195 -196 0
-109 192 193 -196 0
-192 196 0
-192 -193 -195 0
109 -192 -195 0
-104 193 1261 0
104 193 194 0
-104 -193 -1261 0
104 -193 -194 0
-84 194 -1260 0
-194 1260 0
84 -194 0
111 195 -823 0
195 -823 1262 0
-195 823 0
-111 -195 -1262 0
-168 196 197 0
168 -196 0
-196 -197 0
-193 197 823 -998 0
194 197 823 998 0
-197 -823 0
193 -197 -998 0
-194 -197 998 0
-78 -113 198 -1264 0
-198 1264 0
78 -198 0
113 -198 0
-80 -174 199 -1263 0
-199 1263 0
80 -199 0
174 -199 0
-176 200 -201 0
-176 200 -208 0
-176 200 -207 0
176 -200 0
-200 201 207 208 0
201 204 -205 0
-49 201 202 -205 0
-201 205 0
-201 -202 -204 0
49 -201 -204 0
-44 202 811 0
44 202 203 0
-44 -202 -811 0
44 -202 -203 0
-22 203 -810 0
-203 810 0
22 -203 0
51 204 -315 0
204 -315 812 0
-204 315 0
-51 -204 -812 0
-184 205 206 0
184 -205 0
-205 -206 0
-202 206 315 -490 0
203 206 315 490 0
-206 -315 0
202 -206 -490 0
-203 -206 490 0
-16 -53 207 -814 0
-207 814 0
16 -207 0
53 -207 0
-18 -190 208 -813 0
-208 813 0
18 -208 0
190 -208 0
-191 209 -210 -248 0
200 209 -210 -248 0
-209 248 0
-209 210 0
191 -200 -209 0
210 211 235 238 -241 0
210 211 -235 -238 -241 0
-210 241 0
-210 -235 238 0
-210 -211 0
-210 235 -238 0
211 -212 223 0
-211 212 0
-211 -223 0
212 -216 315 0
50 212 -213 -216 0
-212 216 0
-212 213 -315 0
-50 -212 -315 0
213 434 -817 0
213 -214 -434 0
-213 214 -434 0
-213 434 817 0
-27 214 -779 0
23 -27 214 215 0
27 -214 0
-214 -215 779 0
-23 -214 779 0
215 326 816 0
-215 -326 0
-215 -816 0
216 217 -220 0
-216 -217 0
-216 220 0
213 217 218 0
213 214 217 0
214 217 -218 315 0
-213 -217 218 0
-214 -217 -218 0
-213 -217 -315 0
218 -219 490 491 0
-218 219 0
-218 -491 0
-218 -490 0
219 492 493 494 0
-219 -492 0
-219 -494 0
-219 -493 0
-6 220 221 -222 -576 0
-220 222 0
-220 576 0
6 -220 0
-220 -221 0
-11 221 547 0
-11 -14 221 0
11 -221 0
14 -221 -547 0
45 59 222 0
45 58 222 0
-45 -222 0
-58 -59 -222 0
223 -224 228 823 0
223 -224 228 -234 0
-223 224 0
-223 -228 0
-223 234 -823 0
-71 224 -225 0
71 -224 0
-224 225 0
62 225 -226 -227 0
62 73 225 -226 0
-62 -225 0
-225 226 0
-73 -225 227 0
105 119 226 0
105 118 226 0
-105 -226 0
-118 -119 -226 0
76 227 -1055 0
-227 1055 0
-76 -227 0
228 229 233 0
228 231 233 0
228 229 -231 823 0
-228 -229 -231 0
-228 231 -233 0
-228 -233 -823 0
-85 229 -1229 0
-85 99 229 230 0
85 -229 0
-229 -230 1229 0
-99 -229 1229 0
230 834 1266 0
-230 -834 0
-230 -1266 0
231 -232 998 999 0
-231 232 0
-231 -999 0
-231 -998 0
232 1000 1001 1002 0
-232 -1000 0
-232 -1002 0
-232 -1001 0
233 942 -1267 0
-229 233 -942 0
229 -233 -942 0
-233 942 1267 0
110 -233 234 0
-110 -234 0
233 -234 0
-85 -225 235 236 -237 0
-235 237 0
85 -235 0
225 -235 0
-235 -236 0
-110 236 -823 0
-236 823 0
110 -236 0
-71 237 -1229 1231 0
-237 1229 0
-237 -1231 0
71 -237 0
-27 -220 238 239 -240 0
-238 240 0
27 -238 0
220 -238 0
-238 -239 0
-50 239 -315 0
-239 315 0
50 -239 0
240 -779 781 0
-240 779 0
-240 -781 0
69 241 -243 0
67 241 -243 0
241 242 -243 0
-241 243 0
-67 -69 -241 -242 0
-63 -65 242 0
-63 -66 242 0
63 -242 0
65 66 -242 0
75 243 -244 0
74 243 -244 0
76 243 -244 0
-243 244 0
-74 -75 -76 -243 0
86 93 244 -245 0
-92 93 244 -245 0
-244 245 0
-93 -244 0
-86 92 -244 0
99 -226 236 245 -246 0
226 -245 0
-236 -245 0
-99 -245 0
-245 246 0
-71 246 247 -827 0
-71 246 247 828 0
71 -246 0
-246 -247 0
-246 827 -828 0
247 825 826 0
-247 -825 0
-247 -826 0
223 248 249 258 0
-212 248 -249 -258 0
-212 248 249 258 0
223 248 -249 -258 0
-248 249 -258 0
-248 -249 258 0
212 -223 -248 0
-224 249 -250 -255 0
-224 249 251 -255 0
-249 255 0
224 -249 0
-249 250 -251 0
250 998 999 0
-250 -998 0
-250 -999 0
251 252 -942 0
-85 251 -254 942 0
-251 -252 -942 0
85 -251 942 0
-251 254 942 0
-85 252 -253 0
85 -252 0
-252 253 0
253 -1229 -1231 0
99 253 1229 0
253 -1229 -1235 0
-99 -253 1229 0
-253 -1229 1231 1235 0
254 -1229 1231 1237 0
-254 1229 0
-254 -1237 0
-254 -1231 0
255 256 823 0
110 251 255 256 0
-255 -256 0
-251 -255 -823 0
-110 -255 -823 0
252 256 -257 0
232 -251 256 0
232 256 -257 0
-251 252 256 0
251 -256 257 0
-232 -252 -256 0
-231 257 823 0
-257 -823 0
231 -257 0
258 -263 315 0
50 258 259 -263 0
-258 263 0
-258 -259 -315 0
-50 -258 -315 0
259 260 -434 0
-27 259 -262 434 0
-259 -260 -434 0
27 -259 434 0
-259 262 434 0
-27 260 -261 0
27 -260 0
-260 261 0
261 -779 -781 0
23 261 779 0
261 -779 -785 0
-23 -261 779 0
-261 -779 781 785 0
262 -779 781 787 0
-262 779 0
-262 -787 0
-262 -781 0
-220 263 -264 265 0
-220 259 263 265 0
220 -263 0
-263 -265 0
-259 -263 264 0
264 490 491 0
-264 -490 0
-264 -491 0
260 265 -266 0
219 -259 265 0
219 265 -266 0
-259 260 265 0
259 -265 266 0
-219 -260 -265 0
-218 266 315 0
-266 -315 0
218 -266 0
-61 169 267 268 0
-61 267 268 276 0
61 -267 0
-267 -268 0
-169 -267 -276 0
268 270 1019 0
80 268 269 270 0
-268 -270 0
-268 -269 -1019 0
-80 -268 -1019 0
-78 269 1026 -1259 0
78 -269 0
-269 1259 0
-269 -1026 0
105 270 271 275 0
105 270 271 -274 0
-105 -270 0
-270 -271 0
-270 274 -275 0
271 -273 823 -998 0
271 272 823 998 0
-271 -823 0
-271 273 -998 0
-271 -272 998 0
-84 272 -827 0
-272 827 0
84 -272 0
-104 273 1256 0
104 272 273 0
-104 -273 -1256 0
104 -272 -273 0
-109 273 274 0
109 -274 0
-273 -274 0
111 275 -823 0
275 -823 1257 0
-275 823 0
-111 -275 -1257 0
-170 269 276 0
269 276 1258 0
-269 -276 0
170 -276 -1258 0
-6 -8 277 278 286 0
8 -277 0
-277 -286 0
6 -277 0
-277 -278 0
278 280 511 0
18 278 279 280 0
-278 -280 0
-278 -279 -511 0
-18 -278 -511 0
-16 279 518 -809 0
16 -279 0
-279 809 0
-279 -518 0
45 280 281 285 0
45 280 281 -284 0
-45 -280 0
-280 -281 0
-280 284 -285 0
281 -283 315 -490 0
281 282 315 490 0
-281 -315 0
-281 283 -490 0
-281 -282 490 0
-22 282 -319 0
-282 319 0
22 -282 0
-44 283 806 0
44 282 283 0
-44 -283 -806 0
44 -282 -283 0
-49 283 284 0
49 -284 0
-283 -284 0
51 285 -315 0
285 -315 807 0
-285 315 0
-51 -285 -807 0
-185 -186 279 286 0
-185 279 286 808 0
185 -286 0
-279 -286 0
186 -286 -808 0
130 287 288 298 0
-120 287 -288 -298 0
-120 287 288 298 0
130 287 -288 -298 0
-287 288 -298 0
-287 -288 298 0
120 -130 -287 0
-5 288 -289 0
-5 288 297 0
5 -288 0
-288 289 -297 0
16 -53 289 -290 0
-16 -53 289 -791 0
53 -289 0
16 -289 290 0
-16 -289 791 0
-18 290 -790 0
18 290 -291 0
-18 -290 790 0
18 -290 291 0
45 291 292 296 0
45 291 292 -295 0
-45 -291 0
-291 -292 0
-291 295 -296 0
292 293 -315 789 0
51 292 293 -315 0
-292 315 0
-292 -293 0
-51 -292 -789 0
-49 293 294 0
49 -293 0
-293 -294 0
22 44 294 0
-44 294 788 0
44 294 320 0
-44 -294 -788 0
-22 44 -294 -320 0
-22 44 295 -320 0
-22 295 -320 490 0
22 -295 0
-295 320 0
-44 -295 -490 0
296 315 788 0
296 315 490 0
44 296 315 0
-296 -315 0
-44 -296 -490 -788 0
-55 291 297 0
290 297 -511 0
-55 297 -511 0
290 291 297 0
55 -290 -297 0
-291 -297 511 0
-61 298 -299 0
-61 298 307 0
61 -298 0
-298 299 -307 0
78 -113 299 -300 0
-78 -113 299 -1241 0
113 -299 0
78 -299 300 0
-78 -299 1241 0
-80 300 -1240 0
80 300 -301 0
-80 -300 1240 0
80 -300 301 0
105 301 302 306 0
105 301 302 -305 0
-105 -301 0
-301 -302 0
-301 305 -306 0
302 303 -823 1239 0
111 302 303 -823 0
-302 823 0
-302 -303 0
-111 -302 -1239 0
-109 303 304 0
109 -303 0
-303 -304 0
84 104 304 0
-104 304 1238 0
104 304 828 0
-104 -304 -1238 0
-84 104 -304 -828 0
-84 104 305 -828 0
-84 305 -828 998 0
84 -305 0
-305 828 0
-104 -305 -998 0
306 823 1238 0
306 823 998 0
104 306 823 0
-306 -823 0
-104 -306 -998 -1238 0
-115 301 307 0
300 307 -1019 0
-115 307 -1019 0
300 301 307 0
115 -300 -307 0
-301 -307 1019 0
-12 -13 -14 308 0
12 -308 0
13 -308 0
14 -308 0
-35 309 -310 0
-39 309 -310 0
-42 309 -310 0
-309 310 0
35 39 42 -309 0
23 28 -222 310 -311 0
-23 -310 0
-310 311 0
222 -310 0
-28 -310 0
239 311 -312 -313 -314 0
-239 -311 0
-311 314 0
-311 313 0
-311 312 0
312 -692 -721 -750 0
-312 692 0
-312 721 0
-312 750 0
313 -576 -605 -634 -663 0
-313 663 0
-313 576 0
-313 634 0
-313 605 0
314 -318 -319 0
314 -317 320 0
314 -317 -319 0
314 -318 320 0
-314 319 -320 0
-314 317 318 0
1 2 0
-1 -2 0
1273 0

